p cnf 321 1574
c p weight 28 0 0
c p weight -28 1 0
c p weight 29 1 0
c p weight -29 1 0
c p weight 36 0 0
c p weight -36 1 0
c p weight 37 1 0
c p weight -37 1 0
c p weight 44 0 0
c p weight -44 1 0
c p weight 45 1 0
c p weight -45 1 0
c p weight 55 0 0
c p weight -55 1 0
c p weight 56 1 0
c p weight -56 1 0
c p weight 63 0 0
c p weight -63 1 0
c p weight 64 1 0
c p weight -64 1 0
c p weight 71 0 0
c p weight -71 1 0
c p weight 72 1 0
c p weight -72 1 0
c p weight 82 0 0
c p weight -82 1 0
c p weight 83 1 0
c p weight -83 1 0
c p weight 90 0 0
c p weight -90 1 0
c p weight 91 1 0
c p weight -91 1 0
c p weight 98 0 0
c p weight -98 1 0
c p weight 99 1 0
c p weight -99 1 0
c p weight 106 0 0
c p weight -106 1 0
c p weight 107 1 0
c p weight -107 1 0
c p weight 117 0 0
c p weight -117 1 0
c p weight 118 1 0
c p weight -118 1 0
c p weight 125 0 0
c p weight -125 1 0
c p weight 126 1 0
c p weight -126 1 0
c p weight 136 0 0
c p weight -136 1 0
c p weight 137 1 0
c p weight -137 1 0
c p weight 144 0 0
c p weight -144 1 0
c p weight 145 1 0
c p weight -145 1 0
c p weight 152 0 0
c p weight -152 1 0
c p weight 153 1 0
c p weight -153 1 0
c p weight 163 0 0
c p weight -163 1 0
c p weight 164 1 0
c p weight -164 1 0
c p weight 171 0 0
c p weight -171 1 0
c p weight 172 1 0
c p weight -172 1 0
c p weight 179 0 0
c p weight -179 1 0
c p weight 180 1 0
c p weight -180 1 0
c p weight 190 0 0
c p weight -190 1 0
c p weight 191 1 0
c p weight -191 1 0
c p weight 198 0 0
c p weight -198 1 0
c p weight 199 1 0
c p weight -199 1 0
c p weight 206 0 0
c p weight -206 1 0
c p weight 207 1 0
c p weight -207 1 0
c p weight 217 0 0
c p weight -217 1 0
c p weight 218 1 0
c p weight -218 1 0
c p weight 225 0 0
c p weight -225 1 0
c p weight 226 1 0
c p weight -226 1 0
c p weight 233 0 0
c p weight -233 1 0
c p weight 234 1 0
c p weight -234 1 0
c p weight 244 0 0
c p weight -244 1 0
c p weight 245 1 0
c p weight -245 1 0
c p weight 252 0 0
c p weight -252 1 0
c p weight 253 1 0
c p weight -253 1 0
c p weight 260 0 0
c p weight -260 1 0
c p weight 261 1 0
c p weight -261 1 0
c p weight 271 0 0
c p weight -271 1 0
c p weight 272 1 0
c p weight -272 1 0
c p weight 279 0 0
c p weight -279 1 0
c p weight 280 1 0
c p weight -280 1 0
c p weight 287 0 0
c p weight -287 1 0
c p weight 288 1 0
c p weight -288 1 0
c p weight 298 0 0
c p weight -298 1 0
c p weight 299 1 0
c p weight -299 1 0
c p weight 306 0 0
c p weight -306 1 0
c p weight 307 1 0
c p weight -307 1 0
c p weight 317 0 0
c p weight -317 1 0
c p weight 318 1 0
c p weight -318 1 0
c p weight 319 -1 0
c p weight -319 1 0
c p weight 321 0.5 0
321 0
-23 0
-21 0
-19 0
-17 0
-15 0
-13 0
-11 0
-9 0
-7 0
-5 0
-3 0
-1 0
24 -23 1 0
24 -23 2 0
-24 23 1 0
-24 23 2 0
24 23 -1 -2 0
-24 -23 -1 -2 0
25 1 -2 0
25 -1 2 0
-25 1 2 0
-25 -1 -2 0
26 27 -24 0
26 -24 25 0
-26 27 24 0
-26 24 25 0
26 -24 -1 0
-26 24 -1 0
26 -27 24 1 -25 0
-26 -27 -24 1 -25 0
27 -1 25 0
-27 1 25 0
-28 25 0
27 -28 -1 0
-27 -28 1 0
27 28 1 -25 0
-27 28 -1 -25 0
-29 25 0
27 -29 1 0
-27 -29 -1 0
27 29 -1 -25 0
-27 29 1 -25 0
30 -26 27 0
30 -26 25 0
-30 26 27 0
-30 26 25 0
30 26 -27 -25 0
-30 -26 -27 -25 0
31 27 -25 0
31 -27 25 0
-31 27 25 0
-31 -27 -25 0
32 -30 3 0
32 -30 4 0
-32 30 3 0
-32 30 4 0
32 30 -3 -4 0
-32 -30 -3 -4 0
33 3 -4 0
33 -3 4 0
-33 3 4 0
-33 -3 -4 0
34 35 -32 0
34 -32 33 0
-34 35 32 0
-34 32 33 0
34 -32 -3 0
-34 32 -3 0
34 -35 32 3 -33 0
-34 -35 -32 3 -33 0
35 -3 33 0
-35 3 33 0
-36 33 0
35 -36 -3 0
-35 -36 3 0
35 36 3 -33 0
-35 36 -3 -33 0
-37 33 0
35 -37 3 0
-35 -37 -3 0
35 37 -3 -33 0
-35 37 3 -33 0
38 -34 35 0
38 -34 33 0
-38 34 35 0
-38 34 33 0
38 34 -35 -33 0
-38 -34 -35 -33 0
39 35 -33 0
39 -35 33 0
-39 35 33 0
-39 -35 -33 0
40 -38 35 0
40 -38 39 0
-40 38 35 0
-40 38 39 0
40 38 -35 -39 0
-40 -38 -35 -39 0
41 35 -39 0
41 -35 39 0
-41 35 39 0
-41 -35 -39 0
42 43 -40 0
42 -40 41 0
-42 43 40 0
-42 40 41 0
42 -40 -35 0
-42 40 -35 0
42 -43 40 35 -41 0
-42 -43 -40 35 -41 0
43 -35 41 0
-43 35 41 0
-44 41 0
43 -44 -35 0
-43 -44 35 0
43 44 35 -41 0
-43 44 -35 -41 0
-45 41 0
43 -45 35 0
-43 -45 -35 0
43 45 -35 -41 0
-43 45 35 -41 0
46 -42 43 0
46 -42 41 0
-46 42 43 0
-46 42 41 0
46 42 -43 -41 0
-46 -42 -43 -41 0
47 43 -41 0
47 -43 41 0
-47 43 41 0
-47 -43 -41 0
48 -46 27 0
48 -46 47 0
-48 46 27 0
-48 46 47 0
48 -46 43 -31 0
48 -46 -43 31 0
-48 46 43 -31 0
-48 46 -43 31 0
48 46 -27 43 31 -47 0
48 46 -27 -43 -31 -47 0
-48 -46 -27 43 31 -47 0
-48 -46 -27 -43 -31 -47 0
50 27 -43 0
50 -27 43 0
-50 27 43 0
-50 -27 -43 0
49 31 -47 0
49 -31 47 0
-49 31 47 0
-49 -31 -47 0
51 -48 50 0
51 -48 47 0
-51 48 50 0
-51 48 47 0
51 48 -50 -47 0
-51 -48 -50 -47 0
52 50 -47 0
52 -50 47 0
-52 50 47 0
-52 -50 -47 0
53 54 -51 0
53 -51 52 0
-53 54 51 0
-53 51 52 0
53 -51 -50 0
-53 51 -50 0
53 -54 51 50 -52 0
-53 -54 -51 50 -52 0
54 -50 52 0
-54 50 52 0
-55 52 0
54 -55 -50 0
-54 -55 50 0
54 55 50 -52 0
-54 55 -50 -52 0
-56 52 0
54 -56 50 0
-54 -56 -50 0
54 56 -50 -52 0
-54 56 50 -52 0
57 -53 54 0
57 -53 52 0
-57 53 54 0
-57 53 52 0
57 53 -54 -52 0
-57 -53 -54 -52 0
58 54 -52 0
58 -54 52 0
-58 54 52 0
-58 -54 -52 0
59 -57 5 0
59 -57 6 0
-59 57 5 0
-59 57 6 0
59 57 -5 -6 0
-59 -57 -5 -6 0
60 5 -6 0
60 -5 6 0
-60 5 6 0
-60 -5 -6 0
61 62 -59 0
61 -59 60 0
-61 62 59 0
-61 59 60 0
61 -59 -5 0
-61 59 -5 0
61 -62 59 5 -60 0
-61 -62 -59 5 -60 0
62 -5 60 0
-62 5 60 0
-63 60 0
62 -63 -5 0
-62 -63 5 0
62 63 5 -60 0
-62 63 -5 -60 0
-64 60 0
62 -64 5 0
-62 -64 -5 0
62 64 -5 -60 0
-62 64 5 -60 0
65 -61 62 0
65 -61 60 0
-65 61 62 0
-65 61 60 0
65 61 -62 -60 0
-65 -61 -62 -60 0
66 62 -60 0
66 -62 60 0
-66 62 60 0
-66 -62 -60 0
67 -65 62 0
67 -65 66 0
-67 65 62 0
-67 65 66 0
67 65 -62 -66 0
-67 -65 -62 -66 0
68 62 -66 0
68 -62 66 0
-68 62 66 0
-68 -62 -66 0
69 70 -67 0
69 -67 68 0
-69 70 67 0
-69 67 68 0
69 -67 -62 0
-69 67 -62 0
69 -70 67 62 -68 0
-69 -70 -67 62 -68 0
70 -62 68 0
-70 62 68 0
-71 68 0
70 -71 -62 0
-70 -71 62 0
70 71 62 -68 0
-70 71 -62 -68 0
-72 68 0
70 -72 62 0
-70 -72 -62 0
70 72 -62 -68 0
-70 72 62 -68 0
73 -69 70 0
73 -69 68 0
-73 69 70 0
-73 69 68 0
73 69 -70 -68 0
-73 -69 -70 -68 0
74 70 -68 0
74 -70 68 0
-74 70 68 0
-74 -70 -68 0
75 -73 27 0
75 -73 74 0
-75 73 27 0
-75 73 74 0
75 -73 70 -49 0
75 -73 -70 49 0
-75 73 70 -49 0
-75 73 -70 49 0
75 73 -27 70 49 -74 0
75 73 -27 -70 -49 -74 0
-75 -73 -27 70 49 -74 0
-75 -73 -27 -70 -49 -74 0
77 27 -70 0
77 -27 70 0
-77 27 70 0
-77 -27 -70 0
76 49 -74 0
76 -49 74 0
-76 49 74 0
-76 -49 -74 0
78 -75 77 0
78 -75 74 0
-78 75 77 0
-78 75 74 0
78 75 -77 -74 0
-78 -75 -77 -74 0
79 77 -74 0
79 -77 74 0
-79 77 74 0
-79 -77 -74 0
80 81 -78 0
80 -78 79 0
-80 81 78 0
-80 78 79 0
80 -78 -77 0
-80 78 -77 0
80 -81 78 77 -79 0
-80 -81 -78 77 -79 0
81 -77 79 0
-81 77 79 0
-82 79 0
81 -82 -77 0
-81 -82 77 0
81 82 77 -79 0
-81 82 -77 -79 0
-83 79 0
81 -83 77 0
-81 -83 -77 0
81 83 -77 -79 0
-81 83 77 -79 0
84 -80 81 0
84 -80 79 0
-84 80 81 0
-84 80 79 0
84 80 -81 -79 0
-84 -80 -81 -79 0
85 81 -79 0
85 -81 79 0
-85 81 79 0
-85 -81 -79 0
86 -84 7 0
86 -84 8 0
-86 84 7 0
-86 84 8 0
86 84 -7 -8 0
-86 -84 -7 -8 0
87 7 -8 0
87 -7 8 0
-87 7 8 0
-87 -7 -8 0
88 89 -86 0
88 -86 87 0
-88 89 86 0
-88 86 87 0
88 -86 -7 0
-88 86 -7 0
88 -89 86 7 -87 0
-88 -89 -86 7 -87 0
89 -7 87 0
-89 7 87 0
-90 87 0
89 -90 -7 0
-89 -90 7 0
89 90 7 -87 0
-89 90 -7 -87 0
-91 87 0
89 -91 7 0
-89 -91 -7 0
89 91 -7 -87 0
-89 91 7 -87 0
92 -88 89 0
92 -88 87 0
-92 88 89 0
-92 88 87 0
92 88 -89 -87 0
-92 -88 -89 -87 0
93 89 -87 0
93 -89 87 0
-93 89 87 0
-93 -89 -87 0
94 -92 9 0
94 -92 10 0
-94 92 9 0
-94 92 10 0
94 92 -9 -10 0
-94 -92 -9 -10 0
95 9 -10 0
95 -9 10 0
-95 9 10 0
-95 -9 -10 0
96 97 -94 0
96 -94 95 0
-96 97 94 0
-96 94 95 0
96 -94 -9 0
-96 94 -9 0
96 -97 94 9 -95 0
-96 -97 -94 9 -95 0
97 -9 95 0
-97 9 95 0
-98 95 0
97 -98 -9 0
-97 -98 9 0
97 98 9 -95 0
-97 98 -9 -95 0
-99 95 0
97 -99 9 0
-97 -99 -9 0
97 99 -9 -95 0
-97 99 9 -95 0
100 -96 97 0
100 -96 95 0
-100 96 97 0
-100 96 95 0
100 96 -97 -95 0
-100 -96 -97 -95 0
101 97 -95 0
101 -97 95 0
-101 97 95 0
-101 -97 -95 0
102 -100 97 0
102 -100 101 0
-102 100 97 0
-102 100 101 0
102 100 -97 -101 0
-102 -100 -97 -101 0
103 97 -101 0
103 -97 101 0
-103 97 101 0
-103 -97 -101 0
104 105 -102 0
104 -102 103 0
-104 105 102 0
-104 102 103 0
104 -102 -97 0
-104 102 -97 0
104 -105 102 97 -103 0
-104 -105 -102 97 -103 0
105 -97 103 0
-105 97 103 0
-106 103 0
105 -106 -97 0
-105 -106 97 0
105 106 97 -103 0
-105 106 -97 -103 0
-107 103 0
105 -107 97 0
-105 -107 -97 0
105 107 -97 -103 0
-105 107 97 -103 0
108 -104 105 0
108 -104 103 0
-108 104 105 0
-108 104 103 0
108 104 -105 -103 0
-108 -104 -105 -103 0
109 105 -103 0
109 -105 103 0
-109 105 103 0
-109 -105 -103 0
110 -108 54 0
110 -108 109 0
-110 108 54 0
-110 108 109 0
110 -108 105 -58 0
110 -108 -105 58 0
-110 108 105 -58 0
-110 108 -105 58 0
110 108 -54 105 58 -109 0
110 108 -54 -105 -58 -109 0
-110 -108 -54 105 58 -109 0
-110 -108 -54 -105 -58 -109 0
112 54 -105 0
112 -54 105 0
-112 54 105 0
-112 -54 -105 0
111 58 -109 0
111 -58 109 0
-111 58 109 0
-111 -58 -109 0
113 -110 112 0
113 -110 109 0
-113 110 112 0
-113 110 109 0
113 110 -112 -109 0
-113 -110 -112 -109 0
114 112 -109 0
114 -112 109 0
-114 112 109 0
-114 -112 -109 0
115 116 -113 0
115 -113 114 0
-115 116 113 0
-115 113 114 0
115 -113 -112 0
-115 113 -112 0
115 -116 113 112 -114 0
-115 -116 -113 112 -114 0
116 -112 114 0
-116 112 114 0
-117 114 0
116 -117 -112 0
-116 -117 112 0
116 117 112 -114 0
-116 117 -112 -114 0
-118 114 0
116 -118 112 0
-116 -118 -112 0
116 118 -112 -114 0
-116 118 112 -114 0
119 -115 116 0
119 -115 114 0
-119 115 116 0
-119 115 114 0
119 115 -116 -114 0
-119 -115 -116 -114 0
120 116 -114 0
120 -116 114 0
-120 116 114 0
-120 -116 -114 0
121 -119 116 0
121 -119 120 0
-121 119 116 0
-121 119 120 0
121 119 -116 -120 0
-121 -119 -116 -120 0
122 116 -120 0
122 -116 120 0
-122 116 120 0
-122 -116 -120 0
123 124 -121 0
123 -121 122 0
-123 124 121 0
-123 121 122 0
123 -121 -116 0
-123 121 -116 0
123 -124 121 116 -122 0
-123 -124 -121 116 -122 0
124 -116 122 0
-124 116 122 0
-125 122 0
124 -125 -116 0
-124 -125 116 0
124 125 116 -122 0
-124 125 -116 -122 0
-126 122 0
124 -126 116 0
-124 -126 -116 0
124 126 -116 -122 0
-124 126 116 -122 0
127 -123 124 0
127 -123 122 0
-127 123 124 0
-127 123 122 0
127 123 -124 -122 0
-127 -123 -124 -122 0
128 124 -122 0
128 -124 122 0
-128 124 122 0
-128 -124 -122 0
129 -127 89 0
129 -127 128 0
-129 127 89 0
-129 127 128 0
129 -127 124 -93 0
129 -127 -124 93 0
-129 127 124 -93 0
-129 127 -124 93 0
129 127 -89 124 93 -128 0
129 127 -89 -124 -93 -128 0
-129 -127 -89 124 93 -128 0
-129 -127 -89 -124 -93 -128 0
131 89 -124 0
131 -89 124 0
-131 89 124 0
-131 -89 -124 0
130 93 -128 0
130 -93 128 0
-130 93 128 0
-130 -93 -128 0
132 -129 131 0
132 -129 128 0
-132 129 131 0
-132 129 128 0
132 129 -131 -128 0
-132 -129 -131 -128 0
133 131 -128 0
133 -131 128 0
-133 131 128 0
-133 -131 -128 0
134 135 -132 0
134 -132 133 0
-134 135 132 0
-134 132 133 0
134 -132 -131 0
-134 132 -131 0
134 -135 132 131 -133 0
-134 -135 -132 131 -133 0
135 -131 133 0
-135 131 133 0
-136 133 0
135 -136 -131 0
-135 -136 131 0
135 136 131 -133 0
-135 136 -131 -133 0
-137 133 0
135 -137 131 0
-135 -137 -131 0
135 137 -131 -133 0
-135 137 131 -133 0
138 -134 135 0
138 -134 133 0
-138 134 135 0
-138 134 133 0
138 134 -135 -133 0
-138 -134 -135 -133 0
139 135 -133 0
139 -135 133 0
-139 135 133 0
-139 -135 -133 0
140 -138 11 0
140 -138 12 0
-140 138 11 0
-140 138 12 0
140 138 -11 -12 0
-140 -138 -11 -12 0
141 11 -12 0
141 -11 12 0
-141 11 12 0
-141 -11 -12 0
142 143 -140 0
142 -140 141 0
-142 143 140 0
-142 140 141 0
142 -140 -11 0
-142 140 -11 0
142 -143 140 11 -141 0
-142 -143 -140 11 -141 0
143 -11 141 0
-143 11 141 0
-144 141 0
143 -144 -11 0
-143 -144 11 0
143 144 11 -141 0
-143 144 -11 -141 0
-145 141 0
143 -145 11 0
-143 -145 -11 0
143 145 -11 -141 0
-143 145 11 -141 0
146 -142 143 0
146 -142 141 0
-146 142 143 0
-146 142 141 0
146 142 -143 -141 0
-146 -142 -143 -141 0
147 143 -141 0
147 -143 141 0
-147 143 141 0
-147 -143 -141 0
148 -146 143 0
148 -146 147 0
-148 146 143 0
-148 146 147 0
148 146 -143 -147 0
-148 -146 -143 -147 0
149 143 -147 0
149 -143 147 0
-149 143 147 0
-149 -143 -147 0
150 151 -148 0
150 -148 149 0
-150 151 148 0
-150 148 149 0
150 -148 -143 0
-150 148 -143 0
150 -151 148 143 -149 0
-150 -151 -148 143 -149 0
151 -143 149 0
-151 143 149 0
-152 149 0
151 -152 -143 0
-151 -152 143 0
151 152 143 -149 0
-151 152 -143 -149 0
-153 149 0
151 -153 143 0
-151 -153 -143 0
151 153 -143 -149 0
-151 153 143 -149 0
154 -150 151 0
154 -150 149 0
-154 150 151 0
-154 150 149 0
154 150 -151 -149 0
-154 -150 -151 -149 0
155 151 -149 0
155 -151 149 0
-155 151 149 0
-155 -151 -149 0
156 -154 81 0
156 -154 155 0
-156 154 81 0
-156 154 155 0
156 -154 151 -85 0
156 -154 -151 85 0
-156 154 151 -85 0
-156 154 -151 85 0
156 154 -81 151 85 -155 0
156 154 -81 -151 -85 -155 0
-156 -154 -81 151 85 -155 0
-156 -154 -81 -151 -85 -155 0
158 81 -151 0
158 -81 151 0
-158 81 151 0
-158 -81 -151 0
157 85 -155 0
157 -85 155 0
-157 85 155 0
-157 -85 -155 0
159 -156 158 0
159 -156 155 0
-159 156 158 0
-159 156 155 0
159 156 -158 -155 0
-159 -156 -158 -155 0
160 158 -155 0
160 -158 155 0
-160 158 155 0
-160 -158 -155 0
161 162 -159 0
161 -159 160 0
-161 162 159 0
-161 159 160 0
161 -159 -158 0
-161 159 -158 0
161 -162 159 158 -160 0
-161 -162 -159 158 -160 0
162 -158 160 0
-162 158 160 0
-163 160 0
162 -163 -158 0
-162 -163 158 0
162 163 158 -160 0
-162 163 -158 -160 0
-164 160 0
162 -164 158 0
-162 -164 -158 0
162 164 -158 -160 0
-162 164 158 -160 0
165 -161 162 0
165 -161 160 0
-165 161 162 0
-165 161 160 0
165 161 -162 -160 0
-165 -161 -162 -160 0
166 162 -160 0
166 -162 160 0
-166 162 160 0
-166 -162 -160 0
167 -165 13 0
167 -165 14 0
-167 165 13 0
-167 165 14 0
167 165 -13 -14 0
-167 -165 -13 -14 0
168 13 -14 0
168 -13 14 0
-168 13 14 0
-168 -13 -14 0
169 170 -167 0
169 -167 168 0
-169 170 167 0
-169 167 168 0
169 -167 -13 0
-169 167 -13 0
169 -170 167 13 -168 0
-169 -170 -167 13 -168 0
170 -13 168 0
-170 13 168 0
-171 168 0
170 -171 -13 0
-170 -171 13 0
170 171 13 -168 0
-170 171 -13 -168 0
-172 168 0
170 -172 13 0
-170 -172 -13 0
170 172 -13 -168 0
-170 172 13 -168 0
173 -169 170 0
173 -169 168 0
-173 169 170 0
-173 169 168 0
173 169 -170 -168 0
-173 -169 -170 -168 0
174 170 -168 0
174 -170 168 0
-174 170 168 0
-174 -170 -168 0
175 -173 170 0
175 -173 174 0
-175 173 170 0
-175 173 174 0
175 173 -170 -174 0
-175 -173 -170 -174 0
176 170 -174 0
176 -170 174 0
-176 170 174 0
-176 -170 -174 0
177 178 -175 0
177 -175 176 0
-177 178 175 0
-177 175 176 0
177 -175 -170 0
-177 175 -170 0
177 -178 175 170 -176 0
-177 -178 -175 170 -176 0
178 -170 176 0
-178 170 176 0
-179 176 0
178 -179 -170 0
-178 -179 170 0
178 179 170 -176 0
-178 179 -170 -176 0
-180 176 0
178 -180 170 0
-178 -180 -170 0
178 180 -170 -176 0
-178 180 170 -176 0
181 -177 178 0
181 -177 176 0
-181 177 178 0
-181 177 176 0
181 177 -178 -176 0
-181 -177 -178 -176 0
182 178 -176 0
182 -178 176 0
-182 178 176 0
-182 -178 -176 0
183 -181 89 0
183 -181 182 0
-183 181 89 0
-183 181 182 0
183 -181 178 -130 0
183 -181 -178 130 0
-183 181 178 -130 0
-183 181 -178 130 0
183 181 -89 178 130 -182 0
183 181 -89 -178 -130 -182 0
-183 -181 -89 178 130 -182 0
-183 -181 -89 -178 -130 -182 0
185 89 -178 0
185 -89 178 0
-185 89 178 0
-185 -89 -178 0
184 130 -182 0
184 -130 182 0
-184 130 182 0
-184 -130 -182 0
186 -183 185 0
186 -183 182 0
-186 183 185 0
-186 183 182 0
186 183 -185 -182 0
-186 -183 -185 -182 0
187 185 -182 0
187 -185 182 0
-187 185 182 0
-187 -185 -182 0
188 189 -186 0
188 -186 187 0
-188 189 186 0
-188 186 187 0
188 -186 -185 0
-188 186 -185 0
188 -189 186 185 -187 0
-188 -189 -186 185 -187 0
189 -185 187 0
-189 185 187 0
-190 187 0
189 -190 -185 0
-189 -190 185 0
189 190 185 -187 0
-189 190 -185 -187 0
-191 187 0
189 -191 185 0
-189 -191 -185 0
189 191 -185 -187 0
-189 191 185 -187 0
192 -188 189 0
192 -188 187 0
-192 188 189 0
-192 188 187 0
192 188 -189 -187 0
-192 -188 -189 -187 0
193 189 -187 0
193 -189 187 0
-193 189 187 0
-193 -189 -187 0
194 -192 15 0
194 -192 16 0
-194 192 15 0
-194 192 16 0
194 192 -15 -16 0
-194 -192 -15 -16 0
195 15 -16 0
195 -15 16 0
-195 15 16 0
-195 -15 -16 0
196 197 -194 0
196 -194 195 0
-196 197 194 0
-196 194 195 0
196 -194 -15 0
-196 194 -15 0
196 -197 194 15 -195 0
-196 -197 -194 15 -195 0
197 -15 195 0
-197 15 195 0
-198 195 0
197 -198 -15 0
-197 -198 15 0
197 198 15 -195 0
-197 198 -15 -195 0
-199 195 0
197 -199 15 0
-197 -199 -15 0
197 199 -15 -195 0
-197 199 15 -195 0
200 -196 197 0
200 -196 195 0
-200 196 197 0
-200 196 195 0
200 196 -197 -195 0
-200 -196 -197 -195 0
201 197 -195 0
201 -197 195 0
-201 197 195 0
-201 -197 -195 0
202 -200 197 0
202 -200 201 0
-202 200 197 0
-202 200 201 0
202 200 -197 -201 0
-202 -200 -197 -201 0
203 197 -201 0
203 -197 201 0
-203 197 201 0
-203 -197 -201 0
204 205 -202 0
204 -202 203 0
-204 205 202 0
-204 202 203 0
204 -202 -197 0
-204 202 -197 0
204 -205 202 197 -203 0
-204 -205 -202 197 -203 0
205 -197 203 0
-205 197 203 0
-206 203 0
205 -206 -197 0
-205 -206 197 0
205 206 197 -203 0
-205 206 -197 -203 0
-207 203 0
205 -207 197 0
-205 -207 -197 0
205 207 -197 -203 0
-205 207 197 -203 0
208 -204 205 0
208 -204 203 0
-208 204 205 0
-208 204 203 0
208 204 -205 -203 0
-208 -204 -205 -203 0
209 205 -203 0
209 -205 203 0
-209 205 203 0
-209 -205 -203 0
210 -208 189 0
210 -208 209 0
-210 208 189 0
-210 208 209 0
210 -208 205 -193 0
210 -208 -205 193 0
-210 208 205 -193 0
-210 208 -205 193 0
210 208 -189 205 193 -209 0
210 208 -189 -205 -193 -209 0
-210 -208 -189 205 193 -209 0
-210 -208 -189 -205 -193 -209 0
212 189 -205 0
212 -189 205 0
-212 189 205 0
-212 -189 -205 0
211 193 -209 0
211 -193 209 0
-211 193 209 0
-211 -193 -209 0
213 -210 212 0
213 -210 209 0
-213 210 212 0
-213 210 209 0
213 210 -212 -209 0
-213 -210 -212 -209 0
214 212 -209 0
214 -212 209 0
-214 212 209 0
-214 -212 -209 0
215 216 -213 0
215 -213 214 0
-215 216 213 0
-215 213 214 0
215 -213 -212 0
-215 213 -212 0
215 -216 213 212 -214 0
-215 -216 -213 212 -214 0
216 -212 214 0
-216 212 214 0
-217 214 0
216 -217 -212 0
-216 -217 212 0
216 217 212 -214 0
-216 217 -212 -214 0
-218 214 0
216 -218 212 0
-216 -218 -212 0
216 218 -212 -214 0
-216 218 212 -214 0
219 -215 216 0
219 -215 214 0
-219 215 216 0
-219 215 214 0
219 215 -216 -214 0
-219 -215 -216 -214 0
220 216 -214 0
220 -216 214 0
-220 216 214 0
-220 -216 -214 0
221 -219 17 0
221 -219 18 0
-221 219 17 0
-221 219 18 0
221 219 -17 -18 0
-221 -219 -17 -18 0
222 17 -18 0
222 -17 18 0
-222 17 18 0
-222 -17 -18 0
223 224 -221 0
223 -221 222 0
-223 224 221 0
-223 221 222 0
223 -221 -17 0
-223 221 -17 0
223 -224 221 17 -222 0
-223 -224 -221 17 -222 0
224 -17 222 0
-224 17 222 0
-225 222 0
224 -225 -17 0
-224 -225 17 0
224 225 17 -222 0
-224 225 -17 -222 0
-226 222 0
224 -226 17 0
-224 -226 -17 0
224 226 -17 -222 0
-224 226 17 -222 0
227 -223 224 0
227 -223 222 0
-227 223 224 0
-227 223 222 0
227 223 -224 -222 0
-227 -223 -224 -222 0
228 224 -222 0
228 -224 222 0
-228 224 222 0
-228 -224 -222 0
229 -227 224 0
229 -227 228 0
-229 227 224 0
-229 227 228 0
229 227 -224 -228 0
-229 -227 -224 -228 0
230 224 -228 0
230 -224 228 0
-230 224 228 0
-230 -224 -228 0
231 232 -229 0
231 -229 230 0
-231 232 229 0
-231 229 230 0
231 -229 -224 0
-231 229 -224 0
231 -232 229 224 -230 0
-231 -232 -229 224 -230 0
232 -224 230 0
-232 224 230 0
-233 230 0
232 -233 -224 0
-232 -233 224 0
232 233 224 -230 0
-232 233 -224 -230 0
-234 230 0
232 -234 224 0
-232 -234 -224 0
232 234 -224 -230 0
-232 234 224 -230 0
235 -231 232 0
235 -231 230 0
-235 231 232 0
-235 231 230 0
235 231 -232 -230 0
-235 -231 -232 -230 0
236 232 -230 0
236 -232 230 0
-236 232 230 0
-236 -232 -230 0
237 -235 162 0
237 -235 236 0
-237 235 162 0
-237 235 236 0
237 -235 232 -166 0
237 -235 -232 166 0
-237 235 232 -166 0
-237 235 -232 166 0
237 235 -162 232 166 -236 0
237 235 -162 -232 -166 -236 0
-237 -235 -162 232 166 -236 0
-237 -235 -162 -232 -166 -236 0
239 162 -232 0
239 -162 232 0
-239 162 232 0
-239 -162 -232 0
238 166 -236 0
238 -166 236 0
-238 166 236 0
-238 -166 -236 0
240 -237 239 0
240 -237 236 0
-240 237 239 0
-240 237 236 0
240 237 -239 -236 0
-240 -237 -239 -236 0
241 239 -236 0
241 -239 236 0
-241 239 236 0
-241 -239 -236 0
242 243 -240 0
242 -240 241 0
-242 243 240 0
-242 240 241 0
242 -240 -239 0
-242 240 -239 0
242 -243 240 239 -241 0
-242 -243 -240 239 -241 0
243 -239 241 0
-243 239 241 0
-244 241 0
243 -244 -239 0
-243 -244 239 0
243 244 239 -241 0
-243 244 -239 -241 0
-245 241 0
243 -245 239 0
-243 -245 -239 0
243 245 -239 -241 0
-243 245 239 -241 0
246 -242 243 0
246 -242 241 0
-246 242 243 0
-246 242 241 0
246 242 -243 -241 0
-246 -242 -243 -241 0
247 243 -241 0
247 -243 241 0
-247 243 241 0
-247 -243 -241 0
248 -246 19 0
248 -246 20 0
-248 246 19 0
-248 246 20 0
248 246 -19 -20 0
-248 -246 -19 -20 0
249 19 -20 0
249 -19 20 0
-249 19 20 0
-249 -19 -20 0
250 251 -248 0
250 -248 249 0
-250 251 248 0
-250 248 249 0
250 -248 -19 0
-250 248 -19 0
250 -251 248 19 -249 0
-250 -251 -248 19 -249 0
251 -19 249 0
-251 19 249 0
-252 249 0
251 -252 -19 0
-251 -252 19 0
251 252 19 -249 0
-251 252 -19 -249 0
-253 249 0
251 -253 19 0
-251 -253 -19 0
251 253 -19 -249 0
-251 253 19 -249 0
254 -250 251 0
254 -250 249 0
-254 250 251 0
-254 250 249 0
254 250 -251 -249 0
-254 -250 -251 -249 0
255 251 -249 0
255 -251 249 0
-255 251 249 0
-255 -251 -249 0
256 -254 251 0
256 -254 255 0
-256 254 251 0
-256 254 255 0
256 254 -251 -255 0
-256 -254 -251 -255 0
257 251 -255 0
257 -251 255 0
-257 251 255 0
-257 -251 -255 0
258 259 -256 0
258 -256 257 0
-258 259 256 0
-258 256 257 0
258 -256 -251 0
-258 256 -251 0
258 -259 256 251 -257 0
-258 -259 -256 251 -257 0
259 -251 257 0
-259 251 257 0
-260 257 0
259 -260 -251 0
-259 -260 251 0
259 260 251 -257 0
-259 260 -251 -257 0
-261 257 0
259 -261 251 0
-259 -261 -251 0
259 261 -251 -257 0
-259 261 251 -257 0
262 -258 259 0
262 -258 257 0
-262 258 259 0
-262 258 257 0
262 258 -259 -257 0
-262 -258 -259 -257 0
263 259 -257 0
263 -259 257 0
-263 259 257 0
-263 -259 -257 0
264 -262 243 0
264 -262 263 0
-264 262 243 0
-264 262 263 0
264 -262 259 -247 0
264 -262 -259 247 0
-264 262 259 -247 0
-264 262 -259 247 0
264 262 -243 259 247 -263 0
264 262 -243 -259 -247 -263 0
-264 -262 -243 259 247 -263 0
-264 -262 -243 -259 -247 -263 0
266 243 -259 0
266 -243 259 0
-266 243 259 0
-266 -243 -259 0
265 247 -263 0
265 -247 263 0
-265 247 263 0
-265 -247 -263 0
267 -264 266 0
267 -264 263 0
-267 264 266 0
-267 264 263 0
267 264 -266 -263 0
-267 -264 -266 -263 0
268 266 -263 0
268 -266 263 0
-268 266 263 0
-268 -266 -263 0
269 270 -267 0
269 -267 268 0
-269 270 267 0
-269 267 268 0
269 -267 -266 0
-269 267 -266 0
269 -270 267 266 -268 0
-269 -270 -267 266 -268 0
270 -266 268 0
-270 266 268 0
-271 268 0
270 -271 -266 0
-270 -271 266 0
270 271 266 -268 0
-270 271 -266 -268 0
-272 268 0
270 -272 266 0
-270 -272 -266 0
270 272 -266 -268 0
-270 272 266 -268 0
273 -269 270 0
273 -269 268 0
-273 269 270 0
-273 269 268 0
273 269 -270 -268 0
-273 -269 -270 -268 0
274 270 -268 0
274 -270 268 0
-274 270 268 0
-274 -270 -268 0
275 -273 21 0
275 -273 22 0
-275 273 21 0
-275 273 22 0
275 273 -21 -22 0
-275 -273 -21 -22 0
276 21 -22 0
276 -21 22 0
-276 21 22 0
-276 -21 -22 0
277 278 -275 0
277 -275 276 0
-277 278 275 0
-277 275 276 0
277 -275 -21 0
-277 275 -21 0
277 -278 275 21 -276 0
-277 -278 -275 21 -276 0
278 -21 276 0
-278 21 276 0
-279 276 0
278 -279 -21 0
-278 -279 21 0
278 279 21 -276 0
-278 279 -21 -276 0
-280 276 0
278 -280 21 0
-278 -280 -21 0
278 280 -21 -276 0
-278 280 21 -276 0
281 -277 278 0
281 -277 276 0
-281 277 278 0
-281 277 276 0
281 277 -278 -276 0
-281 -277 -278 -276 0
282 278 -276 0
282 -278 276 0
-282 278 276 0
-282 -278 -276 0
283 -281 278 0
283 -281 282 0
-283 281 278 0
-283 281 282 0
283 281 -278 -282 0
-283 -281 -278 -282 0
284 278 -282 0
284 -278 282 0
-284 278 282 0
-284 -278 -282 0
285 286 -283 0
285 -283 284 0
-285 286 283 0
-285 283 284 0
285 -283 -278 0
-285 283 -278 0
285 -286 283 278 -284 0
-285 -286 -283 278 -284 0
286 -278 284 0
-286 278 284 0
-287 284 0
286 -287 -278 0
-286 -287 278 0
286 287 278 -284 0
-286 287 -278 -284 0
-288 284 0
286 -288 278 0
-286 -288 -278 0
286 288 -278 -284 0
-286 288 278 -284 0
289 -285 286 0
289 -285 284 0
-289 285 286 0
-289 285 284 0
289 285 -286 -284 0
-289 -285 -286 -284 0
290 286 -284 0
290 -286 284 0
-290 286 284 0
-290 -286 -284 0
291 -289 216 0
291 -289 290 0
-291 289 216 0
-291 289 290 0
291 -289 286 -220 0
291 -289 -286 220 0
-291 289 286 -220 0
-291 289 -286 220 0
291 289 -216 286 220 -290 0
291 289 -216 -286 -220 -290 0
-291 -289 -216 286 220 -290 0
-291 -289 -216 -286 -220 -290 0
293 216 -286 0
293 -216 286 0
-293 216 286 0
-293 -216 -286 0
292 220 -290 0
292 -220 290 0
-292 220 290 0
-292 -220 -290 0
294 -291 293 0
294 -291 290 0
-294 291 293 0
-294 291 290 0
294 291 -293 -290 0
-294 -291 -293 -290 0
295 293 -290 0
295 -293 290 0
-295 293 290 0
-295 -293 -290 0
296 297 -294 0
296 -294 295 0
-296 297 294 0
-296 294 295 0
296 -294 -293 0
-296 294 -293 0
296 -297 294 293 -295 0
-296 -297 -294 293 -295 0
297 -293 295 0
-297 293 295 0
-298 295 0
297 -298 -293 0
-297 -298 293 0
297 298 293 -295 0
-297 298 -293 -295 0
-299 295 0
297 -299 293 0
-297 -299 -293 0
297 299 -293 -295 0
-297 299 293 -295 0
300 -296 297 0
300 -296 295 0
-300 296 297 0
-300 296 295 0
300 296 -297 -295 0
-300 -296 -297 -295 0
301 297 -295 0
301 -297 295 0
-301 297 295 0
-301 -297 -295 0
302 -300 297 0
302 -300 301 0
-302 300 297 0
-302 300 301 0
302 300 -297 -301 0
-302 -300 -297 -301 0
303 297 -301 0
303 -297 301 0
-303 297 301 0
-303 -297 -301 0
304 305 -302 0
304 -302 303 0
-304 305 302 0
-304 302 303 0
304 -302 -297 0
-304 302 -297 0
304 -305 302 297 -303 0
-304 -305 -302 297 -303 0
305 -297 303 0
-305 297 303 0
-306 303 0
305 -306 -297 0
-305 -306 297 0
305 306 297 -303 0
-305 306 -297 -303 0
-307 303 0
305 -307 297 0
-305 -307 -297 0
305 307 -297 -303 0
-305 307 297 -303 0
308 -304 305 0
308 -304 303 0
-308 304 305 0
-308 304 303 0
308 304 -305 -303 0
-308 -304 -305 -303 0
309 305 -303 0
309 -305 303 0
-309 305 303 0
-309 -305 -303 0
310 -308 270 0
310 -308 309 0
-310 308 270 0
-310 308 309 0
310 -308 305 -274 0
310 -308 -305 274 0
-310 308 305 -274 0
-310 308 -305 274 0
310 308 -270 305 274 -309 0
310 308 -270 -305 -274 -309 0
-310 -308 -270 305 274 -309 0
-310 -308 -270 -305 -274 -309 0
312 270 -305 0
312 -270 305 0
-312 270 305 0
-312 -270 -305 0
311 274 -309 0
311 -274 309 0
-311 274 309 0
-311 -274 -309 0
313 -310 312 0
313 -310 309 0
-313 310 312 0
-313 310 309 0
313 310 -312 -309 0
-313 -310 -312 -309 0
314 312 -309 0
314 -312 309 0
-314 312 309 0
-314 -312 -309 0
315 316 -313 0
315 -313 314 0
-315 316 313 0
-315 313 314 0
315 -313 -312 0
-315 313 -312 0
315 -316 313 312 -314 0
-315 -316 -313 312 -314 0
316 -312 314 0
-316 312 314 0
-317 314 0
316 -317 -312 0
-316 -317 312 0
316 317 312 -314 0
-316 317 -312 -314 0
-318 314 0
316 -318 312 0
-316 -318 -312 0
316 318 -312 -314 0
-316 318 312 -314 0
319 -315 316 0
319 -315 314 0
-319 315 316 0
-319 315 314 0
319 315 -316 -314 0
-319 -315 -316 -314 0
320 316 -314 0
320 -316 314 0
-320 316 314 0
-320 -316 -314 0
-27 0
-54 0
-111 0
-81 0
-157 0
-89 0
-184 0
-135 0
-139 0
-162 0
-238 0
-189 0
-211 0
-216 0
-292 0
-243 0
-265 0
-270 0
-311 0
-316 0
-320 0
